(assert (forall ((pkt_0_4_6_0  Int  )(state_group_0_state_0_5_7_0  Int  )(state_group_0_state_1_6_8_0  Int  )) (let ((_n0 state_group_0_state_1_6_8_0 ))
(let ((_n1 state_group_0_state_0_5_7_0 ))
(let ((_n2 true ))
(let ((_n3 (+   _n1   (ite  _n2  1 0) ) ))
(let ((_n4 (ite (=  _n0  0)  _n3   _n1  ) ))
(let ((_n5 1000 ))
(let ((_n6 pkt_0_4_6_0 ))
(let ((_n7 (+   _n1   _n6 ) ))
(let ((_n8 (=   _n7   _n5 ) ))
(let ((_n9 false ))
(let ((_n10 (ite (=  _n7  1000)  (ite  _n9  1 0)   _n0  ) ))
(let ((_n11 (<   _n10   (ite  _n2  1 0) ) ))
(let ((_n12 (ite (=  _n7  1000)  _n9   _n11  ) ))
(let ((_n13 (not  _n12 ) ))
(let ((_n14 (or   _n13   _n8 ) ))
(let ((_n15 (ite  _n14   (ite  _n9  1 0)   _n1  ) ))
(let ((_n16 3 ))
(let ((_n17 (<   _n16   _n15 ) ))
(let ((_n18 (ite  _n14   _n9   _n17  ) ))
(let ((_n19 (or   _n18   _n14 ) ))
(let ((_n20 (not  _n19 ) ))
(let ((_n21 (+   _n1   (ite  _n20  1 0) ) ))
(let ((_n22 (not  _n18 ) ))
(let ((_n23 (or   _n22   _n14 ) ))
(let ((_n24 (not  _n23 ) ))
(let ((_n25 (ite  _n23   (ite  _n9  1 0)   _n6  ) ))
(let ((_n26 (+   _n25   (ite  _n24  1 0) ) ))
(let ((_n27 (ite  _n23   (ite  _n9  1 0)   _n26  ) ))
(let ((_n28 (+   _n1   _n27 ) ))
(let ((_n29 (ite (=  (ite  _n18  1 0)  1)  _n28   _n21  ) ))
(let ((_n30 (ite (=  (ite  _n12  1 0)  1)  _n29   _n1  ) ))
(let ((_n31 2 ))
(let ((_n32 (ite (=  _n7  1000)  _n6   (ite  _n9  1 0)  ) ))
(let ((_n33 (-  _n32 )))
(let ((_n34 (ite (=  _n7  1000)  _n0   (ite  _n9  1 0)  ) ))
(let ((_n35 (+   _n34   _n33 ) ))
(let ((_n36 (=   _n35   _n31 ) ))
(let ((_n37 (ite (=  _n7  1000)  _n36   _n9  ) ))
(let ((_n38 (not  _n8 ) ))
(let ((_n39 (or   _n37   _n38 ) ))
(let ((_n40 999 ))
(let ((_n41 (ite  _n39   (ite  _n9  1 0)   _n40  ) ))
(let ((_n42 (not  _n39 ) ))
(let ((_n43 (+   (ite  _n42  1 0)   _n41 ) ))
(let ((_n44 (ite  _n39   (ite  _n9  1 0)   _n43  ) ))
(let ((_n45 (ite  _n39   _n1   (ite  _n9  1 0)  ) ))
(let ((_n46 (+   _n45   _n44 ) ))
(let ((_n47 (and   _n37   _n8 ) ))
(let ((_n48 (ite  _n47   _n16   (ite  _n9  1 0)  ) ))
(let ((_n49 (+   _n48   _n48 ) ))
(let ((_n50 (ite  _n47   _n49   (ite  _n9  1 0)  ) ))
(let ((_n51 (+   _n1   _n50 ) ))
(let ((_n52 (ite (=  (ite  _n37  1 0)  1)  _n51   _n46  ) ))
(let ((_n53 (ite (=  (ite  _n8  1 0)  1)  _n52   _n30  ) ))
(let ((_n54 (=   _n53   _n4 ) ))
(let ((_n56 (ite (=  _n1  999)  (ite  _n2  1 0)   _n0  ) ))
(let ((_n57 (ite (=  _n0  0)  _n56   _n0  ) ))
(let ((_n58 (+   _n0   _n27 ) ))
(let ((_n59 (ite (=  (ite  _n18  1 0)  1)  _n58   _n0  ) ))
(let ((_n60 (ite (=  (ite  _n12  1 0)  1)  _n59   _n0  ) ))
(let ((_n61 (ite  _n39   (ite  _n9  1 0)   _n6  ) ))
(let ((_n62 (+   _n0   _n61 ) ))
(let ((_n63 (ite  _n47   _n40   (ite  _n9  1 0)  ) ))
(let ((_n64 (ite  _n47   _n5   (ite  _n9  1 0)  ) ))
(let ((_n65 (+   _n64   _n63 ) ))
(let ((_n66 (ite  _n47   _n65   (ite  _n9  1 0)  ) ))
(let ((_n67 (+   _n0   _n66 ) ))
(let ((_n68 (ite (=  (ite  _n37  1 0)  1)  _n67   _n62  ) ))
(let ((_n69 (ite (=  (ite  _n8  1 0)  1)  _n68   _n60  ) ))
(let ((_n70 (=   _n69   _n57 ) ))
(let ((_n72 (ite (=  _n6  0)  _n6   (ite  _n9  1 0)  ) ))
(let ((_n73 (ite (=  _n6  0)  _n72   _n6  ) ))
(let ((_n74 (=   _n73   _n6 ) ))
(implies  (and (and (>= state_group_0_state_1_6_8_0 0) (< state_group_0_state_1_6_8_0 1024 ))  (and (and (>= state_group_0_state_0_5_7_0 0) (< state_group_0_state_0_5_7_0 1024 ))  (and (>= pkt_0_4_6_0 0) (< pkt_0_4_6_0 1024 )) ) )   (and  _n54  _n70  _n74 )  ))))))))))))))))))))))))))))))))))))))))))))))))))))))))))))))))))))))))))))
(check-sat)
(get-model)
(exit)